db/inputs/102498465259242708489168442387415540.smt2
(set-logic QF_FP)
(declare-const x0 (_ FloatingPoint 8 24))
(declare-const x1 (_ FloatingPoint 8 24))
(declare-const x2 (_ FloatingPoint 8 24))
(declare-const x3 (_ FloatingPoint 8 24))
(declare-const x4 (_ FloatingPoint 8 24))
(assert (fp.gt (fp.sub RNE x0 x4) (fp.neg x4)))
(assert (fp.geq (fp.sub RNE x0 x3) (fp.add RNE x2 x0)))
(assert (fp.geq (fp.div RNE x0 x4) (fp.mul RNE x0 x1)))
(assert (fp.leq (fp.div RNE x1 x4) (fp.sub RNE x0 x1)))
(assert (fp.eq (fp.add RNE x1 x3) (fp.mul RNE x0 x0)))
(assert (fp.geq (fp.neg x1) (fp.div RNE x1 x1)))
(assert (fp.eq (fp.sub RNE x0 x4) (fp.add RNE x1 x1)))
(assert (fp.lt (fp.sub RNE x2 x4) (fp.sub RNE x1 x0)))
(assert (fp.geq (fp.div RNE x4 x0) (fp.div RNE x1 x1)))
(assert (fp.geq (fp.sub RNE x3 x4) (fp.mul RNE x1 x3)))
(assert (fp.leq (fp.add RNE x4 x0) (fp.mul RNE x1 x2)))
(check-sat)
