db/data/102498465259242708489168442387415540.z3.out
sat
-------------------
23.225216320
